c preprocessed version of rd100.tsp, 97 vertices, 277 edges
p td 97 277
0 1
0 23
0 2
0 3
2 1
22 1
1 23
1 24
2 3
2 24
2 29
2 26
2 28
4 3
30 3
85 3
29 3
3 41
4 5
4 42
4 80
4 41
4 79
4 84
4 85
6 5
40 5
42 5
80 5
81 5
5 82
7 6
66 6
6 40
6 65
6 82
6 67
7 8
7 36
7 39
7 65
7 40
9 8
8 36
8 64
8 65
10 9
9 36
9 37
9 64
9 63
11 10
14 10
10 38
10 37
10 51
10 63
11 12
11 13
11 14
11 49
11 51
12 13
12 48
12 47
12 49
14 13
15 13
48 13
14 15
14 21
14 25
14 38
16 15
15 44
15 21
15 48
16 17
16 44
16 48
18 17
44 17
48 17
17 45
18 19
18 45
18 48
18 47
18 46
19 20
19 45
19 46
19 54
21 20
44 20
45 20
20 23
22 21
21 23
21 25
21 44
22 23
22 24
22 25
24 25
24 26
26 25
38 25
27 26
28 26
26 38
27 28
27 32
27 35
27 38
27 37
27 36
28 29
28 31
28 32
30 29
29 31
30 31
30 33
30 41
32 31
33 31
32 33
32 35
34 33
33 35
33 41
34 35
34 39
34 41
34 43
36 35
39 35
37 36
36 39
38 37
40 39
43 39
40 41
40 43
40 42
42 41
43 41
44 45
47 46
46 50
46 54
47 48
47 49
47 50
50 49
49 51
52 51
61 51
63 51
53 52
61 52
91 52
89 52
88 52
53 54
53 55
53 91
54 55
56 55
90 55
91 55
56 57
90 56
56 92
58 57
74 57
92 57
89 57
93 57
58 59
74 58
58 87
93 58
59 60
59 71
59 72
59 87
93 59
61 60
62 60
70 60
60 71
88 60
93 60
62 61
61 63
88 61
62 63
62 64
62 65
62 66
62 67
62 70
62 69
63 64
65 64
66 65
66 67
68 67
67 69
67 82
68 69
68 82
68 76
68 83
70 69
75 69
76 69
73 69
70 71
70 73
70 72
71 72
73 72
72 87
74 73
75 73
73 87
75 74
74 87
74 85
75 76
75 77
75 86
75 85
77 76
76 83
77 78
77 79
77 82
77 86
77 83
78 79
78 84
78 86
78 85
80 79
81 79
84 79
79 82
80 81
81 82
83 82
84 85
85 86
89 88
88 93
89 90
89 91
89 92
89 93
90 91
90 92
94 46
94 49
94 50
94 51
94 95
94 96
95 46
95 54
95 96
96 54
96 53
96 52
96 51
